; benchmark generated from python API
(set-info :status unknown)
(declare-datatypes ((IntState 0)) (((Mk1 (val1 Int)) (Mk2 (val2 Int)))))
 (declare-fun c_main_~z~0 () Int)
(declare-fun c_main_~x~0 () Int)
(declare-fun c_main_~y~0 () Int)
(assert
 (let (($x41 (exists ((|v_main_#t~nondet2_7_st| IntState) (val!21 Int) )(exists ((|v_main_#t~nondet2_5_st| IntState) (val!22 Int) )(exists ((|v_main_#t~nondet2_6_st| IntState) (val!23 Int) )(let ((?x106 (val2 |v_main_#t~nondet2_6_st|)))
 (let ((?x188 (* 4194304 ?x106)))
 (let ((?x61 (val2 |v_main_#t~nondet2_5_st|)))
 (let ((?x143 (* 4194304 ?x61)))
 (let ((?x76 (val2 |v_main_#t~nondet2_7_st|)))
 (let ((?x163 (* 4194304 ?x76)))
 (let (($x112 (not (= |v_main_#t~nondet2_6_st| (Mk1 val!23)))))
 (let (($x98 (not (= |v_main_#t~nondet2_5_st| (Mk1 val!22)))))
 (let (($x54 (not (= |v_main_#t~nondet2_7_st| (Mk1 val!21)))))
 (and $x54 $x98 $x112 (= c_main_~z~0 (+ ?x163 ?x143 ?x188)))))))))))))
 )
 )
 ))
 (let (($x135 (exists ((|v_main_#t~nondet0_7_st| IntState) (val!18 Int) )(exists ((|v_main_#t~nondet0_5_st| IntState) (val!19 Int) )(exists ((|v_main_#t~nondet0_6_st| IntState) (val!20 Int) )(let ((?x164 (+ (* 1048576 (val2 |v_main_#t~nondet0_7_st|)) (* 1048576 (val2 |v_main_#t~nondet0_5_st|)) (* 1048576 (val2 |v_main_#t~nondet0_6_st|)))))
 (let (($x112 (not (= |v_main_#t~nondet0_6_st| (Mk1 val!20)))))
 (let (($x98 (not (= |v_main_#t~nondet0_5_st| (Mk1 val!19)))))
 (let (($x54 (not (= |v_main_#t~nondet0_7_st| (Mk1 val!18)))))
 (and $x54 $x98 $x112 (= ?x164 c_main_~x~0)))))))
 )
 )
 ))
 (let (($x128 (exists ((|v_main_#t~nondet1_6_st| IntState) (val!15 Int) )(exists ((|v_main_#t~nondet1_7_st| IntState) (val!16 Int) )(exists ((|v_main_#t~nondet1_5_st| IntState) (val!17 Int) )(let ((?x161 (+ (* 2097152 (val2 |v_main_#t~nondet1_6_st|)) (* 2097152 (val2 |v_main_#t~nondet1_7_st|)) (* 2097152 (val2 |v_main_#t~nondet1_5_st|)))))
 (let (($x112 (not (= |v_main_#t~nondet1_5_st| (Mk1 val!17)))))
 (let (($x98 (not (= |v_main_#t~nondet1_7_st| (Mk1 val!16)))))
 (let (($x54 (not (= |v_main_#t~nondet1_6_st| (Mk1 val!15)))))
 (and $x54 $x98 $x112 (= ?x161 c_main_~y~0)))))))
 )
 )
 ))
 (let (($x159 (exists ((|v_main_#t~nondet2_5| Int) )(exists ((|v_main_#t~nondet2_6| Int) )(= (+ (* 4194304 |v_main_#t~nondet2_5|) (* 4194304 |v_main_#t~nondet2_6|)) c_main_~z~0))
 )
 ))
 (let (($x197 (exists ((|v_main_#t~nondet0_5| Int) )(exists ((|v_main_#t~nondet0_6| Int) )(= c_main_~x~0 (+ (* 1048576 |v_main_#t~nondet0_5|) (* 1048576 |v_main_#t~nondet0_6|))))
 )
 ))
 (let (($x182 (exists ((|v_main_#t~nondet1_6| Int) )(exists ((|v_main_#t~nondet1_5| Int) )(= c_main_~y~0 (+ (* 2097152 |v_main_#t~nondet1_6|) (* 2097152 |v_main_#t~nondet1_5|))))
 )
 ))
 (and (and $x182 $x197 $x159) (not (and $x128 $x135 $x41))))))))))
(check-sat)
